param n := 250;
param c := 450
param : V : p w :=
   0	  91	  81
   1	  49	  39
   2	  85	  75
   3	  76	  66
   4	  95	  85
   5	  46	  36
   6	  70	  60
   7	  66	  56
   8	  60	  50
   9	  85	  75
  10	  85	  75
  11	  47	  37
  12	  97	  87
  13	 105	  95
  14	  31	  21
  15	 109	  99
  16	  52	  42
  17	  67	  57
  18	  41	  31
  19	  47	  37
  20	  52	  42
  21	  50	  40
  22	  79	  69
  23	 101	  91
  24	  55	  45
  25	 107	  97
  26	  94	  84
  27	 100	  90
  28	  62	  52
  29	  53	  43
  30	  78	  68
  31	  63	  53
  32	  47	  37
  33	  75	  65
  34	  89	  79
  35	  83	  73
  36	 102	  92
  37	  97	  87
  38	  30	  20
  39	  30	  20
  40	  83	  73
  41	  52	  42
  42	  62	  52
  43	  30	  20
  44	  34	  24
  45	  86	  76
  46	  81	  71
  47	  82	  72
  48	  31	  21
  49	  31	  21
  50	  92	  82
  51	 102	  92
  52	  88	  78
  53	  97	  87
  54	  60	  50
  55	  51	  41
  56	  41	  31
  57	  83	  73
  58	  99	  89
  59	  69	  59
  60	  98	  88
  61	  50	  40
  62	  81	  71
  63	  79	  69
  64	  55	  45
  65	  67	  57
  66	  59	  49
  67	  78	  68
  68	  94	  84
  69	  42	  32
  70	  79	  69
  71	  87	  77
  72	 102	  92
  73	 108	  98
  74	  67	  57
  75	  49	  39
  76	  42	  32
  77	  33	  23
  78	 109	  99
  79	 101	  91
  80	  58	  48
  81	  31	  21
  82	  80	  70
  83	  53	  43
  84	  83	  73
  85	  79	  69
  86	  75	  65
  87	  67	  57
  88	  77	  67
  89	  38	  28
  90	  94	  84
  91	  52	  42
  92	  71	  61
  93	 102	  92
  94	  92	  82
  95	  44	  34
  96	  84	  74
  97	  65	  55
  98	  70	  60
  99	  79	  69
 100	  36	  26
 101	  35	  25
 102	  77	  67
 103	  87	  77
 104	  77	  67
 105	  89	  79
 106	  57	  47
 107	  94	  84
 108	  60	  50
 109	  31	  21
 110	  97	  87
 111	  93	  83
 112	  54	  44
 113	  98	  88
 114	  88	  78
 115	  63	  53
 116	  88	  78
 117	  47	  37
 118	  57	  47
 119	  62	  52
 120	  42	  32
 121	  98	  88
 122	  95	  85
 123	  92	  82
 124	  65	  55
 125	  51	  41
 126	  70	  60
 127	  76	  66
 128	  88	  78
 129	  82	  72
 130	  44	  34
 131	  74	  64
 132	  30	  20
 133	  70	  60
 134	 110	 100
 135	  72	  62
 136	  90	  80
 137	  44	  34
 138	  78	  68
 139	  48	  38
 140	  42	  32
 141	  42	  32
 142	  47	  37
 143	  92	  82
 144	 108	  98
 145	 100	  90
 146	  68	  58
 147	 107	  97
 148	  66	  56
 149	  44	  34
 150	  80	  70
 151	  49	  39
 152	  66	  56
 153	  79	  69
 154	  46	  36
 155	  30	  20
 156	 109	  99
 157	  94	  84
 158	  63	  53
 159	  37	  27
 160	  98	  88
 161	  63	  53
 162	  52	  42
 163	  55	  45
 164	  52	  42
 165	  41	  31
 166	  64	  54
 167	  70	  60
 168	  65	  55
 169	  37	  27
 170	  46	  36
 171	  41	  31
 172	  49	  39
 173	 101	  91
 174	  55	  45
 175	 107	  97
 176	  36	  26
 177	  90	  80
 178	  51	  41
 179	  66	  56
 180	  80	  70
 181	 107	  97
 182	  58	  48
 183	  97	  87
 184	  33	  23
 185	  42	  32
 186	  85	  75
 187	 110	 100
 188	 107	  97
 189	  61	  51
 190	  88	  78
 191	  88	  78
 192	  31	  21
 193	  82	  72
 194	  82	  72
 195	  89	  79
 196	  56	  46
 197	  40	  30
 198	  58	  48
 199	  37	  27
 200	 105	  95
 201	  58	  48
 202	  77	  67
 203	  68	  58
 204	  56	  46
 205	 102	  92
 206	  31	  21
 207	  92	  82
 208	 101	  91
 209	  50	  40
 210	  66	  56
 211	  34	  24
 212	 104	  94
 213	  54	  44
 214	 101	  91
 215	 102	  92
 216	  91	  81
 217	  34	  24
 218	  94	  84
 219	  54	  44
 220	  93	  83
 221	  47	  37
 222	 108	  98
 223	  95	  85
 224	  98	  88
 225	 105	  95
 226	  39	  29
 227	  45	  35
 228	 110	 100
 229	  65	  55
 230	  58	  48
 231	  37	  27
 232	  30	  20
 233	  76	  66
 234	  72	  62
 235	  62	  52
 236	  98	  88
 237	  69	  59
 238	 107	  97
 239	 101	  91
 240	  91	  81
 241	  91	  81
 242	  96	  86
 243	  58	  48
 244	  53	  43
 245	  70	  60
 246	  82	  72
 247	  98	  88
 248	 100	  90
 249	  58	  48
;

set E :=
   0	   5
   0	  29
   0	  30
   0	  45
   0	  68
   0	  71
   0	  98
   0	 112
   0	 128
   0	 159
   0	 171
   0	 189
   0	 192
   0	 206
   0	 207
   0	 213
   0	 216
   0	 217
   1	  20
   1	  29
   1	  43
   1	  45
   1	  82
   1	  83
   1	  94
   1	  96
   1	 105
   1	 119
   1	 131
   1	 139
   1	 150
   1	 158
   1	 182
   1	 189
   1	 192
   1	 196
   1	 230
   2	   9
   2	  16
   2	  18
   2	  37
   2	  42
   2	  57
   2	  73
   2	  82
   2	  83
   2	 110
   2	 124
   2	 134
   2	 151
   2	 152
   2	 153
   2	 155
   2	 156
   2	 174
   2	 187
   2	 191
   2	 237
   3	  15
   3	  19
   3	  20
   3	  23
   3	  24
   3	  36
   3	  53
   3	  58
   3	  71
   3	 105
   3	 114
   3	 116
   3	 117
   3	 121
   3	 124
   3	 127
   3	 128
   3	 129
   3	 131
   3	 136
   3	 143
   3	 150
   3	 154
   3	 166
   3	 178
   3	 180
   3	 210
   3	 239
   3	 242
   4	   5
   4	  24
   4	  28
   4	  34
   4	  38
   4	  53
   4	  54
   4	  62
   4	  75
   4	  79
   4	  84
   4	  88
   4	  89
   4	  95
   4	 115
   4	 125
   4	 139
   4	 141
   4	 153
   4	 158
   4	 159
   4	 164
   4	 184
   4	 194
   4	 200
   4	 203
   4	 206
   4	 226
   4	 248
   5	  17
   5	  19
   5	  26
   5	  45
   5	  66
   5	  74
   5	  85
   5	  93
   5	 102
   5	 104
   5	 107
   5	 129
   5	 182
   5	 198
   5	 199
   5	 200
   5	 202
   5	 203
   5	 205
   5	 206
   5	 210
   5	 215
   5	 219
   5	 221
   5	 244
   5	 248
   6	  17
   6	  36
   6	  39
   6	  55
   6	  58
   6	  64
   6	  87
   6	 113
   6	 118
   6	 125
   6	 137
   6	 139
   6	 145
   6	 161
   6	 162
   6	 166
   6	 168
   6	 191
   6	 195
   6	 197
   6	 199
   6	 230
   6	 231
   7	  21
   7	  41
   7	  49
   7	  70
   7	  77
   7	  84
   7	  89
   7	  91
   7	 126
   7	 144
   7	 145
   7	 152
   7	 153
   7	 154
   7	 166
   7	 176
   7	 204
   7	 224
   7	 225
   7	 238
   7	 246
   8	  15
   8	  18
   8	  32
   8	  41
   8	  45
   8	  47
   8	  56
   8	  67
   8	  76
   8	  77
   8	  80
   8	  95
   8	 103
   8	 116
   8	 124
   8	 130
   8	 135
   8	 142
   8	 165
   8	 179
   8	 180
   8	 197
   8	 204
   8	 209
   8	 230
   8	 232
   8	 237
   8	 238
   9	  15
   9	  18
   9	  20
   9	  25
   9	  40
   9	  48
   9	  50
   9	  73
   9	  88
   9	  92
   9	  95
   9	 133
   9	 149
   9	 156
   9	 162
   9	 169
   9	 170
   9	 177
   9	 181
   9	 188
   9	 193
   9	 218
   9	 240
   9	 245
   9	 248
  10	  15
  10	  19
  10	  29
  10	  50
  10	  55
  10	  57
  10	  58
  10	  66
  10	  76
  10	  86
  10	  90
  10	  92
  10	 122
  10	 159
  10	 163
  10	 178
  10	 183
  10	 185
  10	 222
  10	 229
  11	  25
  11	  33
  11	  38
  11	  44
  11	  60
  11	  64
  11	  72
  11	  77
  11	  82
  11	  83
  11	 106
  11	 109
  11	 110
  11	 120
  11	 131
  11	 141
  11	 147
  11	 162
  11	 164
  11	 173
  11	 175
  11	 185
  11	 201
  11	 202
  11	 218
  11	 222
  11	 249
  12	  23
  12	  34
  12	  41
  12	  54
  12	  55
  12	  60
  12	  62
  12	  66
  12	  72
  12	  91
  12	  97
  12	 110
  12	 118
  12	 120
  12	 141
  12	 142
  12	 147
  12	 150
  12	 174
  12	 201
  12	 204
  12	 208
  12	 213
  12	 214
  12	 229
  12	 234
  12	 238
  12	 247
  13	  19
  13	  26
  13	  32
  13	  34
  13	  44
  13	  53
  13	  59
  13	  73
  13	  82
  13	  87
  13	 101
  13	 109
  13	 111
  13	 130
  13	 138
  13	 147
  13	 155
  13	 165
  13	 175
  13	 177
  13	 200
  13	 204
  13	 221
  13	 230
  13	 245
  14	  20
  14	  22
  14	  24
  14	  62
  14	  83
  14	  88
  14	 127
  14	 133
  14	 135
  14	 144
  14	 150
  14	 181
  14	 191
  14	 201
  14	 207
  14	 211
  14	 216
  14	 217
  14	 224
  14	 225
  14	 226
  15	  20
  15	  43
  15	  56
  15	  73
  15	  76
  15	  81
  15	  84
  15	  95
  15	 107
  15	 116
  15	 120
  15	 146
  15	 152
  15	 192
  15	 194
  15	 199
  15	 202
  15	 211
  15	 227
  15	 229
  15	 242
  16	  27
  16	  29
  16	  33
  16	  38
  16	  49
  16	  50
  16	  61
  16	  65
  16	  67
  16	  72
  16	 101
  16	 107
  16	 110
  16	 120
  16	 123
  16	 124
  16	 138
  16	 153
  16	 160
  16	 161
  16	 163
  16	 186
  16	 191
  16	 195
  16	 197
  16	 201
  16	 205
  16	 209
  16	 211
  16	 213
  16	 245
  17	  30
  17	  42
  17	  51
  17	  53
  17	  54
  17	  67
  17	  70
  17	  79
  17	  91
  17	 102
  17	 104
  17	 115
  17	 120
  17	 130
  17	 138
  17	 154
  17	 163
  17	 166
  17	 178
  17	 185
  17	 189
  17	 190
  17	 201
  17	 213
  17	 222
  17	 238
  18	  37
  18	  41
  18	  45
  18	  54
  18	  69
  18	  85
  18	  92
  18	 133
  18	 137
  18	 157
  18	 162
  18	 169
  18	 172
  18	 209
  18	 217
  18	 241
  19	  36
  19	  46
  19	  50
  19	  73
  19	  89
  19	  91
  19	  94
  19	 101
  19	 126
  19	 136
  19	 137
  19	 139
  19	 141
  19	 154
  19	 193
  19	 197
  19	 203
  19	 212
  19	 216
  19	 226
  19	 243
  19	 249
  20	  26
  20	  39
  20	  41
  20	  51
  20	  67
  20	  85
  20	  94
  20	 103
  20	 118
  20	 168
  20	 177
  20	 178
  20	 180
  20	 192
  20	 206
  20	 207
  20	 221
  20	 232
  21	  29
  21	  38
  21	  39
  21	  54
  21	  63
  21	  64
  21	  67
  21	  78
  21	  92
  21	 103
  21	 130
  21	 143
  21	 153
  21	 163
  21	 175
  21	 178
  21	 188
  21	 199
  21	 219
  21	 228
  21	 234
  21	 235
  21	 238
  21	 242
  21	 249
  22	  45
  22	  61
  22	  72
  22	  87
  22	  91
  22	 105
  22	 132
  22	 137
  22	 146
  22	 152
  22	 156
  22	 167
  22	 168
  22	 170
  22	 171
  22	 193
  22	 207
  22	 232
  22	 239
  23	  34
  23	  55
  23	  56
  23	  62
  23	  69
  23	  75
  23	  77
  23	  87
  23	 136
  23	 137
  23	 148
  23	 159
  23	 169
  23	 187
  23	 216
  23	 218
  23	 221
  23	 222
  23	 224
  24	  34
  24	  45
  24	  67
  24	 118
  24	 120
  24	 131
  24	 147
  24	 148
  24	 149
  24	 167
  24	 171
  24	 174
  24	 180
  24	 181
  24	 193
  24	 211
  24	 224
  24	 233
  24	 239
  24	 248
  25	  35
  25	  54
  25	  58
  25	  77
  25	  91
  25	 100
  25	 104
  25	 110
  25	 122
  25	 124
  25	 177
  25	 179
  25	 200
  25	 206
  25	 211
  25	 215
  25	 217
  25	 221
  25	 225
  25	 248
  26	  34
  26	  36
  26	  68
  26	  78
  26	  85
  26	  95
  26	  99
  26	 100
  26	 103
  26	 115
  26	 123
  26	 130
  26	 133
  26	 135
  26	 141
  26	 147
  26	 149
  26	 154
  26	 169
  26	 176
  26	 203
  26	 224
  26	 231
  26	 237
  26	 248
  27	  30
  27	  34
  27	  54
  27	  65
  27	  71
  27	  77
  27	  82
  27	  86
  27	 119
  27	 121
  27	 140
  27	 145
  27	 148
  27	 151
  27	 159
  27	 166
  27	 179
  27	 189
  27	 194
  27	 218
  27	 231
  27	 242
  27	 246
  28	  67
  28	  68
  28	  95
  28	  97
  28	 103
  28	 113
  28	 118
  28	 129
  28	 135
  28	 146
  28	 156
  28	 159
  28	 190
  28	 191
  28	 208
  28	 229
  28	 238
  29	  39
  29	  42
  29	  52
  29	  59
  29	  61
  29	  72
  29	  73
  29	  76
  29	  77
  29	  78
  29	  83
  29	  86
  29	 110
  29	 111
  29	 117
  29	 118
  29	 122
  29	 125
  29	 156
  29	 161
  29	 164
  29	 174
  29	 186
  29	 191
  29	 197
  29	 210
  29	 213
  29	 218
  29	 237
  29	 239
  29	 242
  30	  38
  30	  48
  30	  63
  30	  65
  30	  86
  30	  88
  30	  90
  30	 111
  30	 115
  30	 134
  30	 137
  30	 140
  30	 146
  30	 149
  30	 151
  30	 158
  30	 160
  30	 213
  30	 241
  31	  41
  31	  51
  31	  86
  31	  95
  31	 127
  31	 140
  31	 143
  31	 180
  31	 194
  31	 197
  31	 207
  31	 208
  31	 236
  31	 240
  31	 246
  32	  33
  32	  40
  32	  50
  32	  68
  32	  95
  32	 101
  32	 102
  32	 116
  32	 130
  32	 159
  32	 160
  32	 162
  32	 166
  32	 169
  32	 176
  32	 187
  32	 189
  32	 191
  32	 197
  32	 227
  32	 229
  32	 234
  32	 240
  33	  42
  33	  47
  33	  60
  33	  72
  33	  75
  33	  76
  33	 113
  33	 120
  33	 145
  33	 159
  33	 169
  33	 179
  33	 182
  33	 183
  33	 200
  33	 210
  33	 211
  33	 217
  33	 226
  33	 232
  33	 241
  34	  38
  34	  41
  34	  48
  34	  64
  34	  67
  34	  86
  34	 106
  34	 127
  34	 128
  34	 129
  34	 136
  34	 172
  34	 178
  34	 190
  34	 198
  34	 204
  34	 206
  34	 233
  34	 234
  34	 248
  35	  49
  35	  57
  35	  66
  35	  69
  35	  70
  35	  81
  35	  89
  35	 109
  35	 113
  35	 124
  35	 128
  35	 167
  35	 188
  35	 211
  35	 220
  35	 236
  36	  41
  36	  47
  36	  58
  36	  64
  36	  77
  36	  79
  36	  81
  36	  85
  36	  86
  36	  97
  36	 112
  36	 122
  36	 123
  36	 130
  36	 135
  36	 141
  36	 156
  36	 165
  36	 188
  36	 193
  36	 198
  36	 208
  36	 210
  36	 217
  36	 237
  36	 241
  37	  46
  37	  55
  37	  60
  37	  91
  37	 103
  37	 110
  37	 111
  37	 120
  37	 131
  37	 135
  37	 136
  37	 139
  37	 146
  37	 149
  37	 162
  37	 172
  37	 173
  37	 175
  37	 189
  37	 190
  37	 195
  37	 211
  37	 222
  37	 226
  37	 239
  38	  50
  38	  58
  38	  59
  38	  83
  38	  89
  38	 127
  38	 133
  38	 151
  38	 159
  38	 171
  38	 184
  38	 193
  38	 196
  38	 202
  38	 230
  38	 236
  38	 240
  39	  40
  39	  42
  39	  56
  39	  61
  39	  74
  39	  79
  39	  82
  39	  93
  39	  96
  39	 100
  39	 105
  39	 109
  39	 113
  39	 121
  39	 125
  39	 136
  39	 140
  39	 149
  39	 164
  39	 178
  39	 194
  39	 207
  39	 213
  39	 218
  39	 224
  39	 227
  39	 240
  39	 245
  39	 248
  40	  42
  40	  44
  40	  51
  40	  58
  40	  60
  40	  68
  40	  71
  40	  74
  40	  84
  40	  90
  40	  96
  40	 102
  40	 104
  40	 107
  40	 110
  40	 127
  40	 128
  40	 140
  40	 145
  40	 162
  40	 170
  40	 173
  40	 178
  40	 181
  40	 182
  40	 195
  40	 199
  40	 204
  40	 205
  40	 221
  40	 233
  40	 242
  40	 248
  41	  75
  41	  77
  41	  79
  41	  93
  41	  98
  41	 100
  41	 109
  41	 120
  41	 141
  41	 145
  41	 159
  41	 175
  41	 193
  41	 195
  41	 196
  41	 220
  41	 227
  41	 229
  41	 231
  41	 237
  41	 243
  42	  44
  42	  53
  42	  81
  42	 101
  42	 110
  42	 116
  42	 125
  42	 126
  42	 137
  42	 139
  42	 149
  42	 158
  42	 161
  42	 163
  42	 175
  42	 177
  42	 179
  42	 192
  42	 229
  42	 239
  42	 246
  43	  45
  43	  52
  43	  54
  43	  66
  43	  96
  43	 124
  43	 133
  43	 137
  43	 145
  43	 161
  43	 165
  43	 171
  43	 173
  43	 174
  43	 196
  43	 215
  43	 216
  43	 240
  44	  62
  44	  76
  44	  89
  44	  92
  44	  97
  44	 102
  44	 104
  44	 111
  44	 116
  44	 122
  44	 128
  44	 157
  44	 161
  44	 187
  44	 206
  44	 207
  44	 217
  44	 238
  44	 246
  45	  47
  45	  50
  45	  51
  45	  69
  45	  89
  45	  94
  45	 140
  45	 168
  45	 186
  45	 191
  45	 206
  45	 214
  45	 228
  45	 233
  45	 247
  45	 248
  46	  55
  46	  64
  46	  71
  46	  76
  46	  90
  46	 100
  46	 120
  46	 122
  46	 146
  46	 167
  46	 184
  46	 185
  46	 188
  46	 193
  46	 201
  46	 206
  46	 208
  46	 217
  46	 235
  46	 237
  46	 239
  47	  58
  47	  66
  47	  70
  47	  88
  47	  95
  47	  97
  47	 119
  47	 136
  47	 138
  47	 148
  47	 149
  47	 151
  47	 167
  47	 174
  47	 175
  47	 182
  47	 202
  47	 209
  47	 210
  47	 217
  47	 242
  47	 245
  48	  60
  48	  68
  48	  80
  48	  82
  48	  88
  48	  92
  48	  97
  48	 104
  48	 117
  48	 122
  48	 129
  48	 147
  48	 166
  48	 181
  48	 192
  48	 203
  48	 214
  48	 237
  48	 248
  49	  53
  49	  55
  49	  56
  49	  66
  49	 109
  49	 131
  49	 152
  49	 158
  49	 160
  49	 172
  49	 173
  49	 177
  49	 180
  49	 198
  49	 199
  49	 201
  49	 207
  50	  58
  50	  74
  50	  78
  50	  84
  50	  97
  50	 102
  50	 125
  50	 127
  50	 136
  50	 139
  50	 146
  50	 163
  50	 170
  50	 177
  50	 202
  50	 203
  50	 207
  50	 218
  50	 222
  50	 223
  50	 229
  50	 235
  50	 240
  51	  55
  51	  68
  51	 105
  51	 133
  51	 137
  51	 139
  51	 150
  51	 154
  51	 158
  51	 159
  51	 160
  51	 186
  51	 191
  51	 196
  51	 212
  51	 231
  51	 246
  52	  55
  52	  59
  52	  71
  52	  81
  52	  82
  52	  84
  52	  95
  52	  97
  52	 105
  52	 106
  52	 126
  52	 155
  52	 157
  52	 186
  52	 188
  52	 189
  52	 193
  52	 196
  52	 204
  52	 224
  52	 233
  52	 238
  52	 246
  53	  68
  53	  80
  53	  86
  53	 100
  53	 105
  53	 127
  53	 146
  53	 150
  53	 157
  53	 162
  53	 164
  53	 207
  53	 209
  53	 211
  53	 226
  53	 227
  53	 235
  54	  56
  54	  61
  54	  72
  54	  81
  54	  94
  54	 112
  54	 132
  54	 142
  54	 144
  54	 148
  54	 175
  54	 178
  54	 183
  54	 200
  54	 223
  54	 230
  54	 233
  54	 235
  54	 245
  54	 249
  55	  61
  55	  62
  55	  71
  55	  77
  55	  79
  55	  85
  55	 101
  55	 105
  55	 125
  55	 126
  55	 127
  55	 141
  55	 151
  55	 152
  55	 154
  55	 165
  55	 176
  55	 183
  55	 186
  55	 191
  55	 204
  55	 206
  55	 210
  55	 216
  55	 230
  55	 234
  55	 238
  55	 243
  55	 249
  56	  72
  56	  73
  56	  83
  56	  86
  56	  90
  56	 118
  56	 122
  56	 151
  56	 160
  56	 163
  56	 165
  56	 176
  56	 178
  56	 182
  56	 189
  56	 202
  56	 203
  56	 249
  57	  64
  57	  77
  57	  84
  57	  96
  57	  99
  57	 116
  57	 120
  57	 127
  57	 137
  57	 148
  57	 150
  57	 151
  57	 172
  57	 177
  57	 187
  57	 192
  57	 200
  57	 208
  58	  88
  58	 101
  58	 112
  58	 114
  58	 122
  58	 135
  58	 137
  58	 138
  58	 149
  58	 182
  58	 186
  58	 188
  58	 201
  58	 217
  58	 218
  58	 243
  58	 246
  59	  68
  59	  90
  59	 105
  59	 116
  59	 122
  59	 130
  59	 140
  59	 153
  59	 156
  59	 162
  59	 163
  59	 170
  59	 202
  59	 219
  59	 220
  59	 223
  59	 237
  59	 240
  60	  82
  60	  84
  60	 104
  60	 112
  60	 127
  60	 137
  60	 139
  60	 165
  60	 180
  60	 182
  60	 185
  60	 188
  60	 202
  60	 226
  61	  93
  61	 102
  61	 104
  61	 111
  61	 125
  61	 127
  61	 139
  61	 140
  61	 150
  61	 155
  61	 164
  61	 170
  61	 181
  61	 182
  61	 192
  61	 196
  61	 197
  61	 218
  61	 219
  61	 226
  61	 227
  61	 230
  61	 246
  62	  68
  62	  86
  62	  92
  62	  99
  62	 121
  62	 124
  62	 139
  62	 142
  62	 144
  62	 146
  62	 160
  62	 178
  62	 184
  62	 190
  62	 191
  62	 205
  62	 209
  62	 212
  62	 218
  62	 223
  62	 243
  63	  67
  63	  77
  63	 107
  63	 114
  63	 126
  63	 127
  63	 128
  63	 134
  63	 151
  63	 169
  63	 189
  63	 190
  63	 200
  63	 202
  63	 212
  63	 224
  63	 229
  63	 233
  63	 238
  64	  73
  64	  74
  64	 110
  64	 123
  64	 134
  64	 143
  64	 153
  64	 154
  64	 161
  64	 162
  64	 167
  64	 202
  64	 205
  64	 226
  65	  72
  65	  73
  65	  75
  65	  83
  65	  84
  65	  99
  65	 110
  65	 130
  65	 131
  65	 135
  65	 136
  65	 164
  65	 184
  65	 189
  65	 213
  65	 227
  65	 242
  66	  77
  66	  84
  66	 119
  66	 131
  66	 167
  66	 184
  66	 209
  66	 230
  66	 232
  66	 235
  66	 237
  67	  71
  67	  76
  67	  82
  67	  87
  67	  98
  67	 101
  67	 125
  67	 146
  67	 170
  67	 171
  67	 176
  67	 185
  67	 204
  67	 206
  67	 217
  67	 220
  67	 225
  67	 231
  67	 239
  67	 248
  68	  75
  68	  90
  68	 106
  68	 129
  68	 159
  68	 161
  68	 176
  68	 195
  68	 200
  68	 207
  68	 215
  68	 217
  68	 219
  68	 224
  68	 227
  68	 229
  68	 245
  68	 248
  69	  74
  69	  77
  69	  95
  69	  99
  69	 100
  69	 120
  69	 123
  69	 135
  69	 144
  69	 145
  69	 158
  69	 163
  69	 174
  69	 181
  69	 190
  69	 192
  69	 197
  69	 219
  69	 226
  69	 235
  69	 238
  70	  78
  70	  81
  70	  86
  70	  87
  70	  88
  70	 121
  70	 134
  70	 136
  70	 137
  70	 147
  70	 148
  70	 152
  70	 163
  70	 166
  70	 168
  70	 192
  70	 207
  70	 208
  70	 223
  70	 233
  70	 249
  71	  74
  71	  86
  71	  91
  71	  93
  71	  94
  71	 105
  71	 113
  71	 114
  71	 117
  71	 120
  71	 124
  71	 131
  71	 157
  71	 164
  71	 176
  71	 177
  71	 186
  71	 187
  71	 190
  71	 192
  71	 205
  71	 207
  71	 215
  72	  74
  72	  81
  72	  85
  72	  93
  72	 111
  72	 112
  72	 118
  72	 126
  72	 128
  72	 136
  72	 141
  72	 146
  72	 156
  72	 163
  72	 171
  72	 196
  72	 204
  72	 213
  72	 224
  72	 230
  72	 242
  72	 249
  73	  78
  73	  80
  73	  83
  73	  87
  73	  99
  73	 100
  73	 102
  73	 103
  73	 114
  73	 123
  73	 125
  73	 133
  73	 136
  73	 138
  73	 142
  73	 154
  73	 168
  73	 174
  73	 176
  73	 185
  73	 215
  73	 220
  73	 248
  74	  89
  74	 108
  74	 115
  74	 121
  74	 129
  74	 130
  74	 136
  74	 142
  74	 148
  74	 149
  74	 153
  74	 160
  74	 161
  74	 168
  74	 171
  74	 178
  74	 180
  74	 183
  74	 184
  74	 199
  74	 213
  74	 235
  75	  94
  75	  97
  75	 121
  75	 138
  75	 148
  75	 155
  75	 158
  75	 160
  75	 164
  75	 175
  75	 176
  75	 178
  75	 180
  75	 181
  75	 205
  75	 209
  75	 217
  75	 232
  75	 246
  76	 103
  76	 104
  76	 121
  76	 126
  76	 134
  76	 147
  76	 153
  76	 156
  76	 172
  76	 177
  76	 185
  76	 186
  76	 188
  76	 200
  76	 207
  76	 213
  76	 231
  76	 245
  76	 247
  77	  81
  77	  90
  77	  94
  77	 135
  77	 141
  77	 146
  77	 156
  77	 163
  77	 171
  77	 197
  77	 211
  77	 221
  77	 225
  77	 233
  78	  81
  78	  85
  78	  87
  78	  92
  78	  99
  78	 116
  78	 119
  78	 136
  78	 139
  78	 145
  78	 152
  78	 163
  78	 189
  78	 216
  78	 220
  78	 223
  78	 242
  78	 244
  79	  80
  79	  91
  79	 113
  79	 119
  79	 130
  79	 147
  79	 153
  79	 157
  79	 158
  79	 170
  79	 178
  79	 182
  79	 198
  79	 217
  79	 218
  79	 229
  80	  88
  80	 111
  80	 113
  80	 124
  80	 132
  80	 142
  80	 156
  80	 172
  80	 180
  80	 197
  80	 200
  80	 210
  80	 212
  80	 219
  80	 244
  81	  83
  81	 112
  81	 137
  81	 139
  81	 141
  81	 161
  81	 163
  81	 165
  81	 167
  81	 173
  81	 175
  81	 178
  81	 183
  81	 187
  81	 198
  81	 199
  81	 201
  81	 225
  81	 240
  82	  87
  82	  96
  82	  98
  82	 103
  82	 104
  82	 130
  82	 133
  82	 139
  82	 140
  82	 153
  82	 157
  82	 168
  82	 175
  82	 190
  82	 195
  82	 202
  82	 207
  82	 210
  82	 216
  82	 226
  82	 229
  83	  89
  83	  90
  83	  97
  83	  98
  83	 102
  83	 106
  83	 118
  83	 123
  83	 146
  83	 149
  83	 156
  83	 159
  83	 167
  83	 171
  83	 172
  83	 195
  83	 212
  83	 220
  83	 230
  83	 239
  83	 243
  84	  93
  84	 122
  84	 134
  84	 140
  84	 143
  84	 148
  84	 155
  84	 161
  84	 175
  84	 182
  84	 191
  84	 195
  84	 200
  84	 225
  84	 226
  84	 246
  85	  86
  85	 105
  85	 107
  85	 113
  85	 117
  85	 118
  85	 127
  85	 143
  85	 150
  85	 152
  85	 173
  85	 175
  85	 177
  85	 181
  85	 185
  85	 201
  85	 217
  85	 225
  85	 230
  85	 234
  85	 240
  85	 246
  86	 100
  86	 104
  86	 108
  86	 109
  86	 111
  86	 123
  86	 143
  86	 148
  86	 166
  86	 204
  86	 212
  86	 217
  86	 240
  86	 248
  87	 101
  87	 107
  87	 110
  87	 136
  87	 150
  87	 154
  87	 157
  87	 162
  87	 166
  87	 177
  87	 179
  87	 183
  87	 190
  87	 195
  87	 205
  87	 207
  87	 232
  87	 233
  87	 237
  87	 239
  88	  89
  88	 105
  88	 144
  88	 151
  88	 159
  88	 166
  88	 173
  88	 187
  88	 206
  88	 215
  88	 216
  88	 229
  88	 248
  89	  90
  89	  93
  89	 107
  89	 122
  89	 127
  89	 139
  89	 145
  89	 151
  89	 156
  89	 158
  89	 161
  89	 168
  89	 179
  89	 203
  89	 210
  89	 244
  90	 109
  90	 118
  90	 125
  90	 135
  90	 146
  90	 147
  90	 149
  90	 151
  90	 159
  90	 216
  90	 245
  90	 249
  91	 112
  91	 122
  91	 127
  91	 135
  91	 145
  91	 146
  91	 148
  91	 155
  91	 159
  91	 172
  91	 174
  91	 189
  91	 196
  91	 200
  91	 207
  91	 211
  91	 215
  91	 219
  91	 222
  91	 224
  91	 229
  91	 232
  91	 237
  91	 241
  91	 243
  92	  93
  92	  97
  92	 102
  92	 105
  92	 112
  92	 125
  92	 126
  92	 146
  92	 151
  92	 152
  92	 156
  92	 165
  92	 166
  92	 190
  92	 192
  92	 208
  92	 225
  92	 234
  92	 235
  92	 242
  93	  99
  93	 100
  93	 110
  93	 117
  93	 128
  93	 130
  93	 140
  93	 146
  93	 154
  93	 161
  93	 196
  93	 211
  93	 227
  93	 230
  93	 243
  93	 244
  94	 101
  94	 147
  94	 165
  94	 167
  94	 179
  94	 183
  94	 223
  94	 248
  95	  97
  95	 111
  95	 112
  95	 116
  95	 133
  95	 148
  95	 157
  95	 165
  95	 182
  95	 188
  95	 189
  95	 199
  95	 226
  95	 242
  96	 110
  96	 115
  96	 148
  96	 165
  96	 183
  96	 193
  96	 230
  96	 234
  96	 237
  96	 243
  96	 246
  97	 115
  97	 142
  97	 156
  97	 157
  97	 173
  97	 186
  97	 192
  97	 200
  97	 204
  97	 213
  97	 218
  97	 221
  97	 236
  97	 237
  97	 241
  98	 104
  98	 109
  98	 118
  98	 128
  98	 164
  98	 174
  98	 183
  98	 195
  98	 199
  98	 201
  98	 204
  98	 216
  99	 103
  99	 112
  99	 116
  99	 125
  99	 127
  99	 134
  99	 135
  99	 143
  99	 160
  99	 173
  99	 184
  99	 197
  99	 200
  99	 216
  99	 225
 100	 104
 100	 122
 100	 149
 100	 153
 100	 154
 100	 190
 100	 193
 100	 211
 100	 222
 100	 246
 100	 249
 101	 111
 101	 123
 101	 139
 101	 141
 101	 145
 101	 150
 101	 151
 101	 172
 101	 178
 101	 197
 101	 216
 101	 225
 101	 236
 101	 237
 101	 245
 102	 109
 102	 110
 102	 122
 102	 137
 102	 150
 102	 157
 102	 180
 102	 183
 102	 189
 102	 233
 102	 235
 102	 236
 103	 104
 103	 105
 103	 107
 103	 118
 103	 122
 103	 154
 103	 167
 103	 169
 103	 178
 103	 187
 103	 191
 103	 197
 103	 200
 103	 206
 103	 210
 103	 223
 103	 235
 103	 244
 103	 245
 104	 114
 104	 120
 104	 149
 104	 152
 104	 164
 104	 167
 104	 170
 104	 181
 104	 217
 104	 230
 104	 234
 104	 243
 104	 246
 105	 118
 105	 137
 105	 141
 105	 153
 105	 157
 105	 159
 105	 176
 105	 183
 105	 187
 105	 207
 105	 233
 106	 112
 106	 122
 106	 135
 106	 147
 106	 179
 106	 183
 106	 194
 106	 204
 106	 206
 106	 208
 106	 211
 106	 227
 106	 246
 106	 247
 107	 123
 107	 124
 107	 135
 107	 138
 107	 141
 107	 151
 107	 153
 107	 154
 107	 167
 107	 183
 107	 184
 107	 185
 107	 186
 107	 188
 107	 191
 107	 201
 107	 212
 107	 215
 107	 219
 107	 223
 107	 227
 107	 239
 108	 109
 108	 131
 108	 134
 108	 143
 108	 173
 108	 178
 108	 187
 108	 216
 108	 221
 108	 222
 108	 243
 109	 113
 109	 122
 109	 141
 109	 143
 109	 148
 109	 156
 109	 158
 109	 190
 109	 192
 109	 193
 109	 209
 109	 210
 109	 213
 109	 216
 110	 118
 110	 121
 110	 125
 110	 126
 110	 177
 110	 182
 110	 192
 110	 198
 110	 199
 110	 210
 110	 220
 110	 235
 111	 112
 111	 133
 111	 135
 111	 150
 111	 160
 111	 204
 111	 216
 111	 221
 111	 227
 112	 125
 112	 134
 112	 135
 112	 138
 112	 150
 112	 161
 112	 163
 112	 189
 112	 204
 112	 208
 112	 213
 112	 215
 112	 245
 113	 119
 113	 131
 113	 141
 113	 153
 113	 161
 113	 175
 113	 179
 113	 193
 113	 211
 113	 226
 114	 127
 114	 131
 114	 148
 114	 151
 114	 161
 114	 162
 114	 163
 114	 164
 114	 167
 114	 173
 114	 180
 114	 181
 114	 186
 115	 148
 115	 163
 115	 164
 115	 184
 115	 188
 115	 196
 115	 206
 115	 207
 115	 214
 115	 220
 115	 221
 115	 232
 115	 236
 115	 249
 116	 150
 116	 151
 116	 169
 116	 189
 116	 241
 116	 242
 116	 246
 117	 118
 117	 132
 117	 148
 117	 179
 117	 184
 117	 187
 117	 213
 117	 216
 117	 223
 117	 228
 117	 229
 117	 243
 118	 124
 118	 131
 118	 133
 118	 157
 118	 162
 118	 178
 118	 183
 118	 186
 118	 189
 118	 192
 118	 199
 118	 211
 119	 121
 119	 130
 119	 139
 119	 168
 119	 184
 119	 197
 119	 198
 119	 214
 119	 222
 119	 223
 119	 230
 119	 235
 119	 246
 119	 248
 120	 132
 120	 135
 120	 137
 120	 146
 120	 147
 120	 148
 120	 150
 120	 156
 120	 171
 120	 196
 120	 197
 120	 211
 120	 216
 120	 217
 120	 247
 120	 249
 121	 123
 121	 139
 121	 141
 121	 153
 121	 162
 121	 163
 121	 165
 121	 166
 121	 172
 121	 177
 121	 178
 122	 132
 122	 150
 122	 153
 122	 165
 122	 177
 122	 204
 122	 212
 122	 213
 122	 214
 122	 236
 122	 247
 123	 124
 123	 132
 123	 133
 123	 143
 123	 167
 123	 176
 123	 206
 123	 209
 123	 215
 123	 224
 123	 232
 124	 125
 124	 126
 124	 131
 124	 132
 124	 135
 124	 145
 124	 147
 124	 165
 124	 167
 124	 169
 124	 173
 124	 174
 124	 180
 124	 185
 124	 223
 124	 224
 124	 225
 124	 231
 124	 237
 125	 146
 125	 151
 125	 161
 125	 165
 125	 180
 125	 182
 125	 205
 125	 209
 125	 231
 126	 131
 126	 139
 126	 161
 126	 175
 126	 180
 126	 182
 126	 200
 126	 217
 126	 218
 126	 229
 126	 230
 126	 232
 126	 235
 127	 143
 127	 160
 127	 162
 127	 165
 127	 182
 127	 185
 127	 201
 127	 218
 127	 226
 127	 229
 128	 130
 128	 170
 128	 173
 128	 175
 128	 176
 128	 184
 128	 187
 128	 212
 128	 224
 128	 225
 129	 133
 129	 134
 129	 140
 129	 141
 129	 142
 129	 153
 129	 179
 129	 205
 129	 222
 129	 225
 129	 226
 129	 231
 130	 142
 130	 144
 130	 168
 130	 173
 130	 186
 130	 189
 130	 193
 130	 199
 130	 201
 130	 210
 130	 214
 130	 221
 130	 222
 130	 244
 131	 137
 131	 140
 131	 147
 131	 169
 131	 176
 131	 189
 131	 195
 131	 203
 131	 204
 131	 214
 131	 229
 131	 242
 131	 245
 132	 139
 132	 144
 132	 149
 132	 175
 132	 185
 132	 186
 132	 188
 132	 194
 132	 219
 132	 242
 132	 245
 133	 159
 133	 166
 133	 170
 133	 179
 133	 190
 133	 197
 133	 207
 133	 216
 133	 231
 133	 234
 133	 243
 134	 137
 134	 142
 134	 144
 134	 149
 134	 161
 134	 167
 134	 178
 134	 184
 134	 221
 134	 225
 134	 239
 134	 241
 134	 244
 134	 245
 134	 246
 134	 249
 135	 140
 135	 162
 135	 164
 135	 170
 135	 184
 135	 196
 135	 217
 135	 224
 135	 230
 135	 235
 135	 246
 136	 142
 136	 143
 136	 167
 136	 173
 136	 188
 136	 191
 136	 211
 136	 223
 136	 227
 136	 240
 137	 152
 137	 158
 137	 161
 137	 168
 137	 169
 137	 170
 137	 186
 137	 201
 137	 209
 137	 228
 137	 233
 137	 241
 137	 242
 138	 142
 138	 149
 138	 173
 138	 174
 138	 178
 138	 179
 138	 190
 138	 205
 138	 207
 138	 211
 138	 212
 138	 214
 138	 218
 138	 232
 138	 233
 138	 243
 139	 140
 139	 143
 139	 155
 139	 158
 139	 172
 139	 182
 139	 191
 139	 226
 139	 230
 139	 248
 140	 156
 140	 158
 140	 193
 140	 203
 140	 219
 140	 225
 140	 242
 141	 156
 141	 171
 141	 176
 141	 185
 141	 189
 141	 191
 141	 199
 141	 214
 141	 221
 141	 224
 141	 228
 141	 229
 141	 249
 142	 148
 142	 154
 142	 156
 142	 165
 142	 185
 142	 220
 142	 226
 142	 244
 143	 168
 143	 175
 143	 197
 143	 201
 143	 208
 143	 211
 143	 219
 143	 224
 143	 229
 143	 230
 143	 231
 143	 233
 143	 247
 144	 159
 144	 168
 144	 174
 144	 180
 144	 195
 144	 196
 144	 203
 144	 218
 144	 220
 144	 231
 144	 242
 144	 249
 145	 162
 145	 165
 145	 174
 145	 176
 145	 185
 145	 224
 145	 226
 145	 233
 145	 240
 145	 247
 146	 151
 146	 154
 146	 158
 146	 178
 146	 207
 146	 216
 146	 234
 147	 162
 147	 164
 147	 178
 147	 198
 147	 212
 147	 213
 147	 216
 147	 230
 147	 235
 147	 239
 148	 154
 148	 160
 148	 165
 148	 185
 148	 187
 148	 205
 148	 213
 148	 214
 148	 219
 148	 235
 149	 159
 149	 161
 149	 163
 149	 183
 149	 185
 149	 188
 149	 215
 149	 219
 149	 246
 150	 152
 150	 192
 150	 195
 150	 207
 150	 211
 150	 216
 150	 221
 150	 224
 150	 225
 150	 244
 150	 248
 151	 154
 151	 169
 151	 173
 151	 190
 151	 203
 151	 206
 151	 207
 151	 216
 151	 219
 151	 230
 151	 236
 151	 240
 151	 245
 152	 160
 152	 207
 152	 211
 152	 229
 152	 240
 152	 242
 152	 246
 153	 154
 153	 164
 153	 168
 153	 194
 153	 210
 153	 225
 153	 233
 153	 235
 154	 164
 154	 171
 154	 175
 154	 202
 154	 205
 154	 209
 154	 211
 154	 215
 154	 227
 154	 231
 154	 243
 155	 156
 155	 161
 155	 163
 155	 169
 155	 177
 155	 179
 155	 205
 155	 224
 155	 239
 156	 157
 156	 171
 156	 176
 156	 177
 156	 191
 156	 201
 157	 158
 157	 165
 157	 182
 157	 195
 157	 207
 157	 211
 157	 229
 157	 235
 157	 237
 158	 189
 158	 204
 158	 209
 158	 211
 158	 213
 158	 219
 158	 229
 158	 231
 159	 160
 159	 163
 159	 165
 159	 179
 159	 186
 159	 194
 159	 195
 159	 202
 159	 223
 159	 235
 159	 236
 159	 248
 160	 169
 160	 184
 160	 200
 160	 213
 160	 215
 160	 216
 160	 229
 160	 235
 160	 241
 160	 242
 160	 246
 161	 162
 161	 209
 161	 225
 161	 240
 161	 248
 162	 203
 162	 209
 162	 214
 162	 224
 162	 227
 163	 164
 163	 171
 163	 173
 163	 185
 163	 187
 163	 188
 163	 193
 163	 199
 163	 207
 163	 223
 163	 228
 163	 229
 164	 171
 164	 175
 164	 193
 164	 201
 164	 214
 164	 231
 164	 239
 165	 184
 165	 185
 165	 186
 165	 187
 165	 188
 165	 195
 165	 202
 165	 206
 165	 218
 165	 246
 166	 167
 166	 175
 166	 179
 166	 187
 166	 200
 166	 210
 166	 219
 166	 225
 167	 187
 167	 190
 167	 194
 167	 195
 167	 208
 167	 218
 167	 229
 167	 245
 167	 246
 168	 169
 168	 182
 168	 193
 168	 194
 168	 207
 168	 226
 168	 230
 168	 235
 169	 176
 169	 178
 169	 181
 169	 183
 169	 185
 169	 205
 169	 229
 169	 241
 169	 248
 170	 211
 170	 217
 170	 218
 170	 223
 170	 225
 170	 234
 170	 249
 171	 174
 171	 180
 171	 181
 171	 184
 171	 208
 171	 236
 171	 238
 172	 176
 172	 182
 172	 186
 172	 199
 172	 204
 172	 209
 172	 220
 172	 233
 172	 248
 174	 182
 174	 193
 174	 195
 174	 196
 174	 197
 174	 200
 174	 207
 174	 236
 174	 242
 174	 248
 175	 185
 175	 208
 175	 223
 175	 225
 175	 227
 175	 230
 175	 231
 175	 234
 175	 235
 175	 247
 176	 180
 176	 188
 176	 190
 176	 201
 176	 207
 176	 208
 176	 238
 177	 179
 177	 194
 177	 200
 177	 207
 177	 208
 177	 215
 178	 184
 178	 200
 178	 213
 178	 218
 178	 226
 179	 180
 179	 189
 179	 192
 179	 201
 179	 203
 179	 239
 179	 247
 180	 184
 180	 191
 180	 202
 180	 227
 180	 230
 181	 220
 181	 236
 181	 242
 182	 184
 182	 193
 182	 197
 182	 200
 182	 215
 182	 238
 182	 242
 182	 246
 183	 202
 183	 224
 183	 227
 183	 233
 183	 235
 183	 238
 183	 241
 183	 246
 184	 186
 184	 193
 184	 226
 184	 238
 184	 246
 185	 187
 185	 188
 185	 203
 185	 213
 185	 217
 185	 218
 185	 241
 185	 249
 186	 187
 186	 195
 186	 196
 186	 197
 186	 200
 186	 221
 187	 202
 187	 208
 187	 214
 187	 227
 187	 231
 187	 242
 188	 190
 188	 196
 188	 197
 188	 208
 188	 241
 189	 191
 189	 202
 189	 221
 189	 227
 189	 231
 189	 233
 189	 237
 189	 245
 190	 199
 190	 214
 190	 233
 190	 240
 190	 243
 191	 210
 191	 211
 191	 213
 191	 227
 191	 229
 191	 241
 191	 242
 191	 243
 191	 245
 192	 201
 192	 206
 192	 209
 192	 218
 192	 220
 192	 225
 192	 231
 192	 247
 193	 205
 193	 206
 193	 223
 193	 228
 194	 197
 194	 207
 194	 225
 194	 238
 194	 240
 195	 203
 195	 216
 195	 221
 195	 234
 195	 242
 195	 249
 196	 214
 196	 216
 196	 219
 196	 222
 197	 201
 197	 209
 197	 216
 197	 238
 197	 241
 197	 243
 198	 209
 198	 216
 198	 220
 198	 221
 198	 233
 198	 244
 198	 245
 199	 212
 199	 217
 199	 219
 199	 224
 199	 236
 199	 237
 199	 238
 200	 212
 200	 218
 200	 229
 200	 232
 200	 234
 200	 236
 200	 237
 201	 202
 201	 207
 201	 215
 201	 218
 201	 242
 202	 212
 202	 231
 202	 239
 202	 243
 203	 232
 203	 233
 203	 238
 204	 217
 204	 218
 204	 229
 204	 241
 205	 206
 205	 208
 205	 217
 205	 220
 205	 222
 205	 230
 205	 247
 206	 217
 206	 237
 206	 242
 207	 214
 207	 237
 207	 242
 207	 244
 208	 214
 208	 223
 208	 230
 208	 248
 209	 218
 209	 237
 209	 238
 209	 246
 209	 248
 210	 214
 210	 215
 210	 232
 211	 223
 211	 242
 211	 243
 212	 220
 212	 222
 212	 237
 212	 240
 212	 244
 213	 215
 213	 232
 213	 236
 213	 237
 213	 239
 213	 247
 213	 248
 214	 216
 214	 225
 214	 228
 214	 230
 214	 231
 214	 235
 214	 240
 214	 243
 215	 228
 215	 229
 215	 248
 216	 218
 216	 219
 216	 220
 216	 222
 216	 224
 216	 226
 216	 229
 216	 236
 216	 237
 216	 245
 216	 246
 217	 221
 217	 225
 218	 236
 218	 240
 219	 228
 219	 230
 219	 239
 219	 242
 219	 244
 219	 245
 220	 222
 220	 223
 220	 236
 221	 231
 221	 233
 221	 239
 222	 224
 222	 245
 223	 242
 223	 249
 224	 232
 224	 233
 224	 245
 224	 248
 225	 233
 225	 247
 226	 234
 226	 236
 226	 239
 226	 241
 226	 246
 227	 245
 227	 247
 228	 232
 228	 247
 229	 232
 230	 233
 230	 243
 231	 232
 231	 234
 231	 246
 232	 238
 232	 242
 233	 241
 233	 246
 234	 236
 234	 237
 234	 243
 234	 244
 235	 247
 236	 238
 237	 238
 237	 243
 242	 245
 245	 248
;
